\ Model MTZ_MODEL
\ LP format - for model browsing. Use MPS format to capture full model detail.
Minimize
  p[0,1] + p[0,2] + p[0,3] + p[0,4] + p[0,5] + p[1,0] + p[1,2] + p[1,3]
   + p[1,4] + p[1,5] + p[2,0] + p[2,1] + p[2,3] + p[2,4] + p[2,5] + p[3,0]
   + p[3,1] + p[3,2] + p[3,4] + p[3,5] + p[4,0] + p[4,1] + p[4,2] + p[4,3]
   + p[4,5] + p[5,0] + p[5,1] + p[5,2] + p[5,3] + p[5,4] + dc[0] + dc[1]
   + dc[2] + dc[3] + dc[4] + dc[5]
Subject To
 p2: p[0,1] - 4.902807201420442 z[0,1] >= 0
 p3: p[0,1] - 35.90468237702347 z[0,1] - dcc[0,1] >= -35.90468237702347
 R2: dcc[0,1] <= 35.90468237702347
 R3: x[0,1,0] - x[1,0,0] + dif[0,1,0] >= 0
 R4: - x[0,1,0] + x[1,0,0] + dif[0,1,0] >= 0
 R5: x[0,1,1] - x[1,0,1] + dif[0,1,1] >= 0
 R6: - x[0,1,1] + x[1,0,1] + dif[0,1,1] >= 0
 p2: p[0,2] - 6.292470434498386 z[0,2] >= 0
 p3: p[0,2] - 35.35080295634759 z[0,2] - dcc[0,2] >= -35.35080295634759
 R9: dcc[0,2] <= 35.35080295634759
 R10: x[0,1,0] - x[2,0,0] + dif[0,2,0] >= 0
 R11: - x[0,1,0] + x[2,0,0] + dif[0,2,0] >= 0
 R12: x[0,1,1] - x[2,0,1] + dif[0,2,1] >= 0
 R13: - x[0,1,1] + x[2,0,1] + dif[0,2,1] >= 0
 p2: p[0,3] - 4.111980617880088 z[0,3] >= 0
 p3: p[0,3] - 48.82524048060515 z[0,3] - dcc[0,3] >= -48.82524048060515
 R16: dcc[0,3] <= 48.82524048060515
 R17: x[0,1,0] - x[3,0,0] + dif[0,3,0] >= 0
 R18: - x[0,1,0] + x[3,0,0] + dif[0,3,0] >= 0
 R19: x[0,1,1] - x[3,0,1] + dif[0,3,1] >= 0
 R20: - x[0,1,1] + x[3,0,1] + dif[0,3,1] >= 0
 p2: p[0,4] - 6.47663056543619 z[0,4] >= 0
 p3: p[0,4] - 47.80070705189596 z[0,4] - dcc[0,4] >= -47.80070705189596
 R23: dcc[0,4] <= 47.80070705189596
 R24: x[0,1,0] - x[4,0,0] + dif[0,4,0] >= 0
 R25: - x[0,1,0] + x[4,0,0] + dif[0,4,0] >= 0
 R26: x[0,1,1] - x[4,0,1] + dif[0,4,1] >= 0
 R27: - x[0,1,1] + x[4,0,1] + dif[0,4,1] >= 0
 p2: p[0,5] - 3.655087885188895 z[0,5] >= 0
 p3: p[0,5] - 44.78237999835672 z[0,5] - dcc[0,5] >= -44.78237999835672
 R30: dcc[0,5] <= 44.78237999835672
 R31: x[0,1,0] - x[5,0,0] + dif[0,5,0] >= 0
 R32: - x[0,1,0] + x[5,0,0] + dif[0,5,0] >= 0
 R33: x[0,1,1] - x[5,0,1] + dif[0,5,1] >= 0
 R34: - x[0,1,1] + x[5,0,1] + dif[0,5,1] >= 0
 p2: p[1,0] - 4.902807201420442 z[1,0] >= 0
 p3: p[1,0] - 35.90468237702347 z[1,0] - dcc[1,0] >= -35.90468237702347
 R37: dcc[1,0] <= 35.90468237702347
 R38: - x[0,0,0] + x[1,1,0] + dif[1,0,0] >= 0
 R39: x[0,0,0] - x[1,1,0] + dif[1,0,0] >= 0
 R40: - x[0,0,1] + x[1,1,1] + dif[1,0,1] >= 0
 R41: x[0,0,1] - x[1,1,1] + dif[1,0,1] >= 0
 p2: p[1,2] - 3.668861173520359 z[1,2] >= 0
 p3: p[1,2] - 45.12268195098697 z[1,2] - dcc[1,2] >= -45.12268195098697
 R44: dcc[1,2] <= 45.12268195098697
 R45: x[1,1,0] - x[2,0,0] + dif[1,2,0] >= 0
 R46: - x[1,1,0] + x[2,0,0] + dif[1,2,0] >= 0
 R47: x[1,1,1] - x[2,0,1] + dif[1,2,1] >= 0
 R48: - x[1,1,1] + x[2,0,1] + dif[1,2,1] >= 0
 p2: p[1,3] - 8.54087961210279 z[1,3] >= 0
 p3: p[1,3] - 44.15551696803659 z[1,3] - dcc[1,3] >= -44.15551696803659
 R51: dcc[1,3] <= 44.15551696803659
 R52: x[1,1,0] - x[3,0,0] + dif[1,3,0] >= 0
 R53: - x[1,1,0] + x[3,0,0] + dif[1,3,0] >= 0
 R54: x[1,1,1] - x[3,0,1] + dif[1,3,1] >= 0
 R55: - x[1,1,1] + x[3,0,1] + dif[1,3,1] >= 0
 p2: p[1,4] - 7.506352343061457 z[1,4] >= 0
 p3: p[1,4] - 52.68440330523875 z[1,4] - dcc[1,4] >= -52.68440330523875
 R58: dcc[1,4] <= 52.68440330523875
 R59: x[1,1,0] - x[4,0,0] + dif[1,4,0] >= 0
 R60: - x[1,1,0] + x[4,0,0] + dif[1,4,0] >= 0
 R61: x[1,1,1] - x[4,0,1] + dif[1,4,1] >= 0
 R62: - x[1,1,1] + x[4,0,1] + dif[1,4,1] >= 0
 p2: p[1,5] - 2.253813949961744 z[1,5] >= 0
 p3: p[1,5] - 40.98055997110614 z[1,5] - dcc[1,5] >= -40.98055997110614
 R65: dcc[1,5] <= 40.98055997110614
 R66: x[1,1,0] - x[5,0,0] + dif[1,5,0] >= 0
 R67: - x[1,1,0] + x[5,0,0] + dif[1,5,0] >= 0
 R68: x[1,1,1] - x[5,0,1] + dif[1,5,1] >= 0
 R69: - x[1,1,1] + x[5,0,1] + dif[1,5,1] >= 0
 p2: p[2,0] - 6.292470434498386 z[2,0] >= 0
 p3: p[2,0] - 35.35080295634759 z[2,0] - dcc[2,0] >= -35.35080295634759
 R72: dcc[2,0] <= 35.35080295634759
 R73: - x[0,0,0] + x[2,1,0] + dif[2,0,0] >= 0
 R74: x[0,0,0] - x[2,1,0] + dif[2,0,0] >= 0
 R75: - x[0,0,1] + x[2,1,1] + dif[2,0,1] >= 0
 R76: x[0,0,1] - x[2,1,1] + dif[2,0,1] >= 0
 p2: p[2,1] - 3.668861173520359 z[2,1] >= 0
 p3: p[2,1] - 45.12268195098697 z[2,1] - dcc[2,1] >= -45.12268195098697
 R79: dcc[2,1] <= 45.12268195098697
 R80: - x[1,0,0] + x[2,1,0] + dif[2,1,0] >= 0
 R81: x[1,0,0] - x[2,1,0] + dif[2,1,0] >= 0
 R82: - x[1,0,1] + x[2,1,1] + dif[2,1,1] >= 0
 R83: x[1,0,1] - x[2,1,1] + dif[2,1,1] >= 0
 p2: p[2,3] - 17.59341277710168 z[2,3] >= 0
 p3: p[2,3] - 60.55326324642262 z[2,3] - dcc[2,3] >= -60.55326324642262
 R86: dcc[2,3] <= 60.55326324642262
 R87: x[2,1,0] - x[3,0,0] + dif[2,3,0] >= 0
 R88: - x[2,1,0] + x[3,0,0] + dif[2,3,0] >= 0
 R89: x[2,1,1] - x[3,0,1] + dif[2,3,1] >= 0
 R90: - x[2,1,1] + x[3,0,1] + dif[2,3,1] >= 0
 p2: p[2,4] - 20.89470949729985 z[2,4] >= 0
 p3: p[2,4] - 61.12144405913712 z[2,4] - dcc[2,4] >= -61.12144405913712
 R93: dcc[2,4] <= 61.12144405913712
 R94: x[2,1,0] - x[4,0,0] + dif[2,4,0] >= 0
 R95: - x[2,1,0] + x[4,0,0] + dif[2,4,0] >= 0
 R96: x[2,1,1] - x[4,0,1] + dif[2,4,1] >= 0
 R97: - x[2,1,1] + x[4,0,1] + dif[2,4,1] >= 0
 p2: p[2,5] - 15.83661899178177 z[2,5] >= 0
 p3: p[2,5] - 56.89947436914118 z[2,5] - dcc[2,5] >= -56.89947436914118
 R100: dcc[2,5] <= 56.89947436914118
 R101: x[2,1,0] - x[5,0,0] + dif[2,5,0] >= 0
 R102: - x[2,1,0] + x[5,0,0] + dif[2,5,0] >= 0
 R103: x[2,1,1] - x[5,0,1] + dif[2,5,1] >= 0
 R104: - x[2,1,1] + x[5,0,1] + dif[2,5,1] >= 0
 p2: p[3,0] - 4.111980617880088 z[3,0] >= 0
 p3: p[3,0] - 48.82524048060515 z[3,0] - dcc[3,0] >= -48.82524048060515
 R107: dcc[3,0] <= 48.82524048060515
 R108: - x[0,0,0] + x[3,1,0] + dif[3,0,0] >= 0
 R109: x[0,0,0] - x[3,1,0] + dif[3,0,0] >= 0
 R110: - x[0,0,1] + x[3,1,1] + dif[3,0,1] >= 0
 R111: x[0,0,1] - x[3,1,1] + dif[3,0,1] >= 0
 p2: p[3,1] - 8.54087961210279 z[3,1] >= 0
 p3: p[3,1] - 44.15551696803659 z[3,1] - dcc[3,1] >= -44.15551696803659
 R114: dcc[3,1] <= 44.15551696803659
 R115: - x[1,0,0] + x[3,1,0] + dif[3,1,0] >= 0
 R116: x[1,0,0] - x[3,1,0] + dif[3,1,0] >= 0
 R117: - x[1,0,1] + x[3,1,1] + dif[3,1,1] >= 0
 R118: x[1,0,1] - x[3,1,1] + dif[3,1,1] >= 0
 p2: p[3,2] - 17.59341277710168 z[3,2] >= 0
 p3: p[3,2] - 60.55326324642262 z[3,2] - dcc[3,2] >= -60.55326324642262
 R121: dcc[3,2] <= 60.55326324642262
 R122: - x[2,0,0] + x[3,1,0] + dif[3,2,0] >= 0
 R123: x[2,0,0] - x[3,1,0] + dif[3,2,0] >= 0
 R124: - x[2,0,1] + x[3,1,1] + dif[3,2,1] >= 0
 R125: x[2,0,1] - x[3,1,1] + dif[3,2,1] >= 0
 p2: p[3,4] - 4.867142102217198 z[3,4] >= 0
 p3: p[3,4] - 41.05928679815261 z[3,4] - dcc[3,4] >= -41.05928679815261
 R128: dcc[3,4] <= 41.05928679815261
 R129: x[3,1,0] - x[4,0,0] + dif[3,4,0] >= 0
 R130: - x[3,1,0] + x[4,0,0] + dif[3,4,0] >= 0
 R131: x[3,1,1] - x[4,0,1] + dif[3,4,1] >= 0
 R132: - x[3,1,1] + x[4,0,1] + dif[3,4,1] >= 0
 p2: p[3,5] - 4.924610296966979 z[3,5] >= 0
 p3: p[3,5] - 25.86517458178932 z[3,5] - dcc[3,5] >= -25.86517458178932
 R135: dcc[3,5] <= 25.86517458178932
 R136: x[3,1,0] - x[5,0,0] + dif[3,5,0] >= 0
 R137: - x[3,1,0] + x[5,0,0] + dif[3,5,0] >= 0
 R138: x[3,1,1] - x[5,0,1] + dif[3,5,1] >= 0
 R139: - x[3,1,1] + x[5,0,1] + dif[3,5,1] >= 0
 p2: p[4,0] - 6.47663056543619 z[4,0] >= 0
 p3: p[4,0] - 47.80070705189596 z[4,0] - dcc[4,0] >= -47.80070705189596
 R142: dcc[4,0] <= 47.80070705189596
 R143: - x[0,0,0] + x[4,1,0] + dif[4,0,0] >= 0
 R144: x[0,0,0] - x[4,1,0] + dif[4,0,0] >= 0
 R145: - x[0,0,1] + x[4,1,1] + dif[4,0,1] >= 0
 R146: x[0,0,1] - x[4,1,1] + dif[4,0,1] >= 0
 p2: p[4,1] - 7.506352343061457 z[4,1] >= 0
 p3: p[4,1] - 52.68440330523875 z[4,1] - dcc[4,1] >= -52.68440330523875
 R149: dcc[4,1] <= 52.68440330523875
 R150: - x[1,0,0] + x[4,1,0] + dif[4,1,0] >= 0
 R151: x[1,0,0] - x[4,1,0] + dif[4,1,0] >= 0
 R152: - x[1,0,1] + x[4,1,1] + dif[4,1,1] >= 0
 R153: x[1,0,1] - x[4,1,1] + dif[4,1,1] >= 0
 p2: p[4,2] - 20.89470949729985 z[4,2] >= 0
 p3: p[4,2] - 61.12144405913712 z[4,2] - dcc[4,2] >= -61.12144405913712
 R156: dcc[4,2] <= 61.12144405913712
 R157: - x[2,0,0] + x[4,1,0] + dif[4,2,0] >= 0
 R158: x[2,0,0] - x[4,1,0] + dif[4,2,0] >= 0
 R159: - x[2,0,1] + x[4,1,1] + dif[4,2,1] >= 0
 R160: x[2,0,1] - x[4,1,1] + dif[4,2,1] >= 0
 p2: p[4,3] - 4.867142102217198 z[4,3] >= 0
 p3: p[4,3] - 41.05928679815261 z[4,3] - dcc[4,3] >= -41.05928679815261
 R163: dcc[4,3] <= 41.05928679815261
 R164: - x[3,0,0] + x[4,1,0] + dif[4,3,0] >= 0
 R165: x[3,0,0] - x[4,1,0] + dif[4,3,0] >= 0
 R166: - x[3,0,1] + x[4,1,1] + dif[4,3,1] >= 0
 R167: x[3,0,1] - x[4,1,1] + dif[4,3,1] >= 0
 p2: p[4,5] - 2.521115664230771 z[4,5] >= 0
 p3: p[4,5] - 41.47623809929387 z[4,5] - dcc[4,5] >= -41.47623809929387
 R170: dcc[4,5] <= 41.47623809929387
 R171: x[4,1,0] - x[5,0,0] + dif[4,5,0] >= 0
 R172: - x[4,1,0] + x[5,0,0] + dif[4,5,0] >= 0
 R173: x[4,1,1] - x[5,0,1] + dif[4,5,1] >= 0
 R174: - x[4,1,1] + x[5,0,1] + dif[4,5,1] >= 0
 p2: p[5,0] - 3.655087885188895 z[5,0] >= 0
 p3: p[5,0] - 44.78237999835672 z[5,0] - dcc[5,0] >= -44.78237999835672
 R177: dcc[5,0] <= 44.78237999835672
 R178: - x[0,0,0] + x[5,1,0] + dif[5,0,0] >= 0
 R179: x[0,0,0] - x[5,1,0] + dif[5,0,0] >= 0
 R180: - x[0,0,1] + x[5,1,1] + dif[5,0,1] >= 0
 R181: x[0,0,1] - x[5,1,1] + dif[5,0,1] >= 0
 p2: p[5,1] - 2.253813949961744 z[5,1] >= 0
 p3: p[5,1] - 40.98055997110614 z[5,1] - dcc[5,1] >= -40.98055997110614
 R184: dcc[5,1] <= 40.98055997110614
 R185: - x[1,0,0] + x[5,1,0] + dif[5,1,0] >= 0
 R186: x[1,0,0] - x[5,1,0] + dif[5,1,0] >= 0
 R187: - x[1,0,1] + x[5,1,1] + dif[5,1,1] >= 0
 R188: x[1,0,1] - x[5,1,1] + dif[5,1,1] >= 0
 p2: p[5,2] - 15.83661899178177 z[5,2] >= 0
 p3: p[5,2] - 56.89947436914118 z[5,2] - dcc[5,2] >= -56.89947436914118
 R191: dcc[5,2] <= 56.89947436914118
 R192: - x[2,0,0] + x[5,1,0] + dif[5,2,0] >= 0
 R193: x[2,0,0] - x[5,1,0] + dif[5,2,0] >= 0
 R194: - x[2,0,1] + x[5,1,1] + dif[5,2,1] >= 0
 R195: x[2,0,1] - x[5,1,1] + dif[5,2,1] >= 0
 p2: p[5,3] - 4.924610296966979 z[5,3] >= 0
 p3: p[5,3] - 25.86517458178932 z[5,3] - dcc[5,3] >= -25.86517458178932
 R198: dcc[5,3] <= 25.86517458178932
 R199: - x[3,0,0] + x[5,1,0] + dif[5,3,0] >= 0
 R200: x[3,0,0] - x[5,1,0] + dif[5,3,0] >= 0
 R201: - x[3,0,1] + x[5,1,1] + dif[5,3,1] >= 0
 R202: x[3,0,1] - x[5,1,1] + dif[5,3,1] >= 0
 p2: p[5,4] - 2.521115664230771 z[5,4] >= 0
 p3: p[5,4] - 41.47623809929387 z[5,4] - dcc[5,4] >= -41.47623809929387
 R205: dcc[5,4] <= 41.47623809929387
 R206: - x[4,0,0] + x[5,1,0] + dif[5,4,0] >= 0
 R207: x[4,0,0] - x[5,1,0] + dif[5,4,0] >= 0
 R208: - x[4,0,1] + x[5,1,1] + dif[5,4,1] >= 0
 R209: x[4,0,1] - x[5,1,1] + dif[5,4,1] >= 0
 R210: z[0,1] + z[0,2] + z[0,3] + z[0,4] + z[0,5] = 1
 R211: z[1,0] + z[1,2] + z[1,3] + z[1,4] + z[1,5] = 1
 R212: z[2,0] + z[2,1] + z[2,3] + z[2,4] + z[2,5] = 1
 R213: z[3,0] + z[3,1] + z[3,2] + z[3,4] + z[3,5] = 1
 R214: z[4,0] + z[4,1] + z[4,2] + z[4,3] + z[4,5] = 1
 R215: z[5,0] + z[5,1] + z[5,2] + z[5,3] + z[5,4] = 1
 R216: z[1,0] + z[2,0] + z[3,0] + z[4,0] + z[5,0] = 1
 R217: z[0,1] + z[2,1] + z[3,1] + z[4,1] + z[5,1] = 1
 R218: z[0,2] + z[1,2] + z[3,2] + z[4,2] + z[5,2] = 1
 R219: z[0,3] + z[1,3] + z[2,3] + z[4,3] + z[5,3] = 1
 R220: z[0,4] + z[1,4] + z[2,4] + z[3,4] + z[5,4] = 1
 R221: z[0,5] + z[1,5] + z[2,5] + z[3,5] + z[4,5] = 1
 rest7: z[0,1] + z[1,0] <= 1
 rest7: z[0,2] + z[2,0] <= 1
 rest7: z[0,3] + z[3,0] <= 1
 rest7: z[0,4] + z[4,0] <= 1
 rest7: z[0,5] + z[5,0] <= 1
 rest7: z[0,1] + z[1,0] <= 1
 rest7: z[1,2] + z[2,1] <= 1
 rest7: z[1,3] + z[3,1] <= 1
 rest7: z[1,4] + z[4,1] <= 1
 rest7: z[1,5] + z[5,1] <= 1
 rest7: z[0,2] + z[2,0] <= 1
 rest7: z[1,2] + z[2,1] <= 1
 rest7: z[2,3] + z[3,2] <= 1
 rest7: z[2,4] + z[4,2] <= 1
 rest7: z[2,5] + z[5,2] <= 1
 rest7: z[0,3] + z[3,0] <= 1
 rest7: z[1,3] + z[3,1] <= 1
 rest7: z[2,3] + z[3,2] <= 1
 rest7: z[3,4] + z[4,3] <= 1
 rest7: z[3,5] + z[5,3] <= 1
 rest7: z[0,4] + z[4,0] <= 1
 rest7: z[1,4] + z[4,1] <= 1
 rest7: z[2,4] + z[4,2] <= 1
 rest7: z[3,4] + z[4,3] <= 1
 rest7: z[4,5] + z[5,4] <= 1
 rest7: z[0,5] + z[5,0] <= 1
 rest7: z[1,5] + z[5,1] <= 1
 rest7: z[2,5] + z[5,2] <= 1
 rest7: z[3,5] + z[5,3] <= 1
 rest7: z[4,5] + z[5,4] <= 1
 R252: 6 z[1,2] + sc[1] - sc[2] <= 5
 R253: 6 z[1,3] + sc[1] - sc[3] <= 5
 R254: 6 z[1,4] + sc[1] - sc[4] <= 5
 R255: 6 z[1,5] + sc[1] - sc[5] <= 5
 R256: 6 z[2,1] - sc[1] + sc[2] <= 5
 R257: 6 z[2,3] + sc[2] - sc[3] <= 5
 R258: 6 z[2,4] + sc[2] - sc[4] <= 5
 R259: 6 z[2,5] + sc[2] - sc[5] <= 5
 R260: 6 z[3,1] - sc[1] + sc[3] <= 5
 R261: 6 z[3,2] - sc[2] + sc[3] <= 5
 R262: 6 z[3,4] + sc[3] - sc[4] <= 5
 R263: 6 z[3,5] + sc[3] - sc[5] <= 5
 R264: 6 z[4,1] - sc[1] + sc[4] <= 5
 R265: 6 z[4,2] - sc[2] + sc[4] <= 5
 R266: 6 z[4,3] - sc[3] + sc[4] <= 5
 R267: 6 z[4,5] + sc[4] - sc[5] <= 5
 R268: 6 z[5,1] - sc[1] + sc[5] <= 5
 R269: 6 z[5,2] - sc[2] + sc[5] <= 5
 R270: 6 z[5,3] - sc[3] + sc[5] <= 5
 R271: 6 z[5,4] - sc[4] + sc[5] <= 5
 rest10: sc[0] = 0
 rest11: sc[1] >= 1
 rest11: sc[2] >= 1
 rest11: sc[3] >= 1
 rest11: sc[4] >= 1
 rest11: sc[5] >= 1
 R278: dc[0] <= 21.49262714384307
 envConv: mu[0,0] + mu[0,1] + mu[0,2] + mu[0,3] = 1
 inP1: x[0,0,0] - 63.41049150306422 mu[0,0] - 45.59677944800063 mu[0,1]
   - 44.08953382091744 mu[0,2] - 63.41049150306423 mu[0,3] = 0
 inP1: x[0,1,0] - 63.41049150306422 mu[0,0] - 45.59677944800063 mu[0,1]
   - 44.08953382091744 mu[0,2] - 63.41049150306423 mu[0,3] = 0
 inP1: x[0,0,1] - 53.34415202351943 mu[0,0] - 65.36932081083955 mu[0,1]
   - 43.92960924179332 mu[0,2] - 53.34415202351952 mu[0,3] = 0
 inP1: x[0,1,1] - 53.34415202351943 mu[0,0] - 65.36932081083955 mu[0,1]
   - 43.92960924179332 mu[0,2] - 53.34415202351952 mu[0,3] = 0
 R284: - x[0,0,0] + x[0,1,0] + difc[0,0] >= 0
 R285: x[0,0,0] - x[0,1,0] + difc[0,0] >= 0
 R286: - x[0,0,1] + x[0,1,1] + difc[0,1] >= 0
 R287: x[0,0,1] - x[0,1,1] + difc[0,1] >= 0
 R288: dc[1] <= 29.19744750736847
 envConv: mu[1,0] + mu[1,1] + mu[1,2] + mu[1,3] + mu[1,4] + mu[1,5]
   + mu[1,6] = 1
 inP1: x[1,0,0] - 44.59111134499708 mu[1,0] - 31.37977699852564 mu[1,1]
   - 30.15347177784491 mu[1,2] - 42.13850090363561 mu[1,3]
   - 55.34983525010705 mu[1,4] - 56.57614047078779 mu[1,5]
   - 44.59111134499709 mu[1,6] = 0
 inP1: x[1,1,0] - 44.59111134499708 mu[1,0] - 31.37977699852564 mu[1,1]
   - 30.15347177784491 mu[1,2] - 42.13850090363561 mu[1,3]
   - 55.34983525010705 mu[1,4] - 56.57614047078779 mu[1,5]
   - 44.59111134499709 mu[1,6] = 0
 inP1: x[1,0,1] - 60.57076372345366 mu[1,0] - 54.35921158070156 mu[1,1]
   - 39.81208434739136 mu[1,2] - 31.47650925683326 mu[1,3]
   - 37.68806139958535 mu[1,4] - 52.23518863289555 mu[1,5]
   - 60.57076372345366 mu[1,6] = 0
 inP1: x[1,1,1] - 60.57076372345366 mu[1,0] - 54.35921158070156 mu[1,1]
   - 39.81208434739136 mu[1,2] - 31.47650925683326 mu[1,3]
   - 37.68806139958535 mu[1,4] - 52.23518863289555 mu[1,5]
   - 60.57076372345366 mu[1,6] = 0
 R294: - x[1,0,0] + x[1,1,0] + difc[1,0] >= 0
 R295: x[1,0,0] - x[1,1,0] + difc[1,0] >= 0
 R296: - x[1,0,1] + x[1,1,1] + difc[1,1] >= 0
 R297: x[1,0,1] - x[1,1,1] + difc[1,1] >= 0
 R298: dc[2] <= 19.62403242734091
 envConv: mu[2,0] + mu[2,1] + mu[2,2] + mu[2,3] + mu[2,4] + mu[2,5]
   + mu[2,6] + mu[2,7] = 1
 inP1: x[2,0,0] - 48.88985360110154 mu[2,0] - 40.60831764820563 mu[2,1]
   - 33.27671381758496 mu[2,2] - 32.41588933116004 mu[2,3]
   - 38.67406258482827 mu[2,4] - 47.33870147510766 mu[2,5]
   - 51.88515619119498 mu[2,6] - 48.88985360110156 mu[2,7] = 0
 inP1: x[2,1,0] - 48.88985360110154 mu[2,0] - 40.60831764820563 mu[2,1]
   - 33.27671381758496 mu[2,2] - 32.41588933116004 mu[2,3]
   - 38.67406258482827 mu[2,4] - 47.33870147510766 mu[2,5]
   - 51.88515619119498 mu[2,6] - 48.88985360110156 mu[2,7] = 0
 inP1: x[2,0,1] - 73.8000695162478 mu[2,0] - 76.57323824746769 mu[2,1]
   - 71.82751513905188 mu[2,2] - 63.13652648674689 mu[2,3]
   - 57.04476400959835 mu[2,4] - 58.13944910220775 mu[2,5]
   - 65.59626156233377 mu[2,6] - 73.80006951624779 mu[2,7] = 0
 inP1: x[2,1,1] - 73.8000695162478 mu[2,0] - 76.57323824746769 mu[2,1]
   - 71.82751513905188 mu[2,2] - 63.13652648674689 mu[2,3]
   - 57.04476400959835 mu[2,4] - 58.13944910220775 mu[2,5]
   - 65.59626156233377 mu[2,6] - 73.80006951624779 mu[2,7] = 0
 R304: - x[2,0,0] + x[2,1,0] + difc[2,0] >= 0
 R305: x[2,0,0] - x[2,1,0] + difc[2,0] >= 0
 R306: - x[2,0,1] + x[2,1,1] + difc[2,1] >= 0
 R307: x[2,0,1] - x[2,1,1] + difc[2,1] >= 0
 R308: dc[3] <= 24.25246243475526
 envConv: mu[3,0] + mu[3,1] + mu[3,2] + mu[3,3] = 1
 inP1: x[3,0,0] - 49.85474887995655 mu[3,0] - 66.53614345489395 mu[3,1]
   - 42.94963504146856 mu[3,2] - 49.85474887995625 mu[3,3] = 0
 inP1: x[3,1,0] - 49.85474887995655 mu[3,0] - 66.53614345489395 mu[3,1]
   - 42.94963504146856 mu[3,2] - 49.85474887995625 mu[3,3] = 0
 inP1: x[3,0,1] - 16.73009996690074 mu[3,0] - 34.33444628207123 mu[3,1]
   - 39.97878459693341 mu[3,2] - 16.73009996690081 mu[3,3] = 0
 inP1: x[3,1,1] - 16.73009996690074 mu[3,0] - 34.33444628207123 mu[3,1]
   - 39.97878459693341 mu[3,2] - 16.73009996690081 mu[3,3] = 0
 R314: - x[3,0,0] + x[3,1,0] + difc[3,0] >= 0
 R315: x[3,0,0] - x[3,1,0] + difc[3,0] >= 0
 R316: - x[3,0,1] + x[3,1,1] + difc[3,1] >= 0
 R317: x[3,0,1] - x[3,1,1] + difc[3,1] >= 0
 R318: dc[4] <= 20.93628885044273
 envConv: mu[4,0] + mu[4,1] + mu[4,2] + mu[4,3] + mu[4,4] + mu[4,5]
   + mu[4,6] + mu[4,7] = 1
 inP1: x[4,0,0] - 61.81197238727255 mu[4,0] - 69.49303217068562 mu[4,1]
   - 78.40566052487043 mu[4,2] - 81.83846651463979 mu[4,3]
   - 77.20647721321654 mu[4,4] - 67.99767503993486 mu[4,5]
   - 61.14647585660674 mu[4,6] - 61.81197238727255 mu[4,7] = 0
 inP1: x[4,1,0] - 61.81197238727255 mu[4,0] - 69.49303217068562 mu[4,1]
   - 78.40566052487043 mu[4,2] - 81.83846651463979 mu[4,3]
   - 77.20647721321654 mu[4,4] - 67.99767503993486 mu[4,5]
   - 61.14647585660674 mu[4,6] - 61.81197238727255 mu[4,7] = 0
 inP1: x[4,0,1] - 33.16342964383579 mu[4,0] - 27.88919087982167 mu[4,1]
   - 30.60605115528226 mu[4,2] - 39.26815926894594 mu[4,3]
   - 47.35277113641956 mu[4,4] - 48.77200912546766 mu[4,5]
   - 42.45715808315794 mu[4,6] - 33.1634296438358 mu[4,7] = 0
 inP1: x[4,1,1] - 33.16342964383579 mu[4,0] - 27.88919087982167 mu[4,1]
   - 30.60605115528226 mu[4,2] - 39.26815926894594 mu[4,3]
   - 47.35277113641956 mu[4,4] - 48.77200912546766 mu[4,5]
   - 42.45715808315794 mu[4,6] - 33.1634296438358 mu[4,7] = 0
 R324: - x[4,0,0] + x[4,1,0] + difc[4,0] >= 0
 R325: x[4,0,0] - x[4,1,0] + difc[4,0] >= 0
 R326: - x[4,0,1] + x[4,1,1] + difc[4,1] >= 0
 R327: x[4,0,1] - x[4,1,1] + difc[4,1] >= 0
 R328: dc[5] <= 22.30823481041698
 envConv: mu[5,0] + mu[5,1] + mu[5,2] + mu[5,3] + mu[5,4] + mu[5,5]
   + mu[5,6] = 1
 inP1: x[5,0,0] - 58.4542863271233 mu[5,0] - 47.36265405099449 mu[5,1]
   - 40.79579853796199 mu[5,2] - 45.32057530105813 mu[5,3]
   - 56.41220757718693 mu[5,4] - 62.97906309021952 mu[5,5]
   - 58.45428632712323 mu[5,6] = 0
 inP1: x[5,1,0] - 58.4542863271233 mu[5,0] - 47.36265405099449 mu[5,1]
   - 40.79579853796199 mu[5,2] - 45.32057530105813 mu[5,3]
   - 56.41220757718693 mu[5,4] - 62.97906309021952 mu[5,5]
   - 58.45428632712323 mu[5,6] = 0
 inP1: x[5,0,1] - 41.12385350835504 mu[5,0] - 42.30284822433716 mu[5,1]
   - 33.28671026176521 mu[5,2] - 23.09157758321142 mu[5,3]
   - 21.91258286722918 mu[5,4] - 30.92872082980106 mu[5,5]
   - 41.12385350835508 mu[5,6] = 0
 inP1: x[5,1,1] - 41.12385350835504 mu[5,0] - 42.30284822433716 mu[5,1]
   - 33.28671026176521 mu[5,2] - 23.09157758321142 mu[5,3]
   - 21.91258286722918 mu[5,4] - 30.92872082980106 mu[5,5]
   - 41.12385350835508 mu[5,6] = 0
 R334: - x[5,0,0] + x[5,1,0] + difc[5,0] >= 0
 R335: x[5,0,0] - x[5,1,0] + difc[5,0] >= 0
 R336: - x[5,0,1] + x[5,1,1] + difc[5,1] >= 0
 R337: x[5,0,1] - x[5,1,1] + difc[5,1] >= 0
 qc0: [ - dcc[0,1] ^2 + dif[0,1,0] ^2 + dif[0,1,1] ^2 ] <= 0
 qc1: [ - dcc[0,2] ^2 + dif[0,2,0] ^2 + dif[0,2,1] ^2 ] <= 0
 qc2: [ - dcc[0,3] ^2 + dif[0,3,0] ^2 + dif[0,3,1] ^2 ] <= 0
 qc3: [ - dcc[0,4] ^2 + dif[0,4,0] ^2 + dif[0,4,1] ^2 ] <= 0
 qc4: [ - dcc[0,5] ^2 + dif[0,5,0] ^2 + dif[0,5,1] ^2 ] <= 0
 qc5: [ - dcc[1,0] ^2 + dif[1,0,0] ^2 + dif[1,0,1] ^2 ] <= 0
 qc6: [ - dcc[1,2] ^2 + dif[1,2,0] ^2 + dif[1,2,1] ^2 ] <= 0
 qc7: [ - dcc[1,3] ^2 + dif[1,3,0] ^2 + dif[1,3,1] ^2 ] <= 0
 qc8: [ - dcc[1,4] ^2 + dif[1,4,0] ^2 + dif[1,4,1] ^2 ] <= 0
 qc9: [ - dcc[1,5] ^2 + dif[1,5,0] ^2 + dif[1,5,1] ^2 ] <= 0
 qc10: [ - dcc[2,0] ^2 + dif[2,0,0] ^2 + dif[2,0,1] ^2 ] <= 0
 qc11: [ - dcc[2,1] ^2 + dif[2,1,0] ^2 + dif[2,1,1] ^2 ] <= 0
 qc12: [ - dcc[2,3] ^2 + dif[2,3,0] ^2 + dif[2,3,1] ^2 ] <= 0
 qc13: [ - dcc[2,4] ^2 + dif[2,4,0] ^2 + dif[2,4,1] ^2 ] <= 0
 qc14: [ - dcc[2,5] ^2 + dif[2,5,0] ^2 + dif[2,5,1] ^2 ] <= 0
 qc15: [ - dcc[3,0] ^2 + dif[3,0,0] ^2 + dif[3,0,1] ^2 ] <= 0
 qc16: [ - dcc[3,1] ^2 + dif[3,1,0] ^2 + dif[3,1,1] ^2 ] <= 0
 qc17: [ - dcc[3,2] ^2 + dif[3,2,0] ^2 + dif[3,2,1] ^2 ] <= 0
 qc18: [ - dcc[3,4] ^2 + dif[3,4,0] ^2 + dif[3,4,1] ^2 ] <= 0
 qc19: [ - dcc[3,5] ^2 + dif[3,5,0] ^2 + dif[3,5,1] ^2 ] <= 0
 qc20: [ - dcc[4,0] ^2 + dif[4,0,0] ^2 + dif[4,0,1] ^2 ] <= 0
 qc21: [ - dcc[4,1] ^2 + dif[4,1,0] ^2 + dif[4,1,1] ^2 ] <= 0
 qc22: [ - dcc[4,2] ^2 + dif[4,2,0] ^2 + dif[4,2,1] ^2 ] <= 0
 qc23: [ - dcc[4,3] ^2 + dif[4,3,0] ^2 + dif[4,3,1] ^2 ] <= 0
 qc24: [ - dcc[4,5] ^2 + dif[4,5,0] ^2 + dif[4,5,1] ^2 ] <= 0
 qc25: [ - dcc[5,0] ^2 + dif[5,0,0] ^2 + dif[5,0,1] ^2 ] <= 0
 qc26: [ - dcc[5,1] ^2 + dif[5,1,0] ^2 + dif[5,1,1] ^2 ] <= 0
 qc27: [ - dcc[5,2] ^2 + dif[5,2,0] ^2 + dif[5,2,1] ^2 ] <= 0
 qc28: [ - dcc[5,3] ^2 + dif[5,3,0] ^2 + dif[5,3,1] ^2 ] <= 0
 qc29: [ - dcc[5,4] ^2 + dif[5,4,0] ^2 + dif[5,4,1] ^2 ] <= 0
 qc30: [ - dc[0] ^2 + difc[0,0] ^2 + difc[0,1] ^2 ] <= 0
 qc31: [ - dc[1] ^2 + difc[1,0] ^2 + difc[1,1] ^2 ] <= 0
 qc32: [ - dc[2] ^2 + difc[2,0] ^2 + difc[2,1] ^2 ] <= 0
 qc33: [ - dc[3] ^2 + difc[3,0] ^2 + difc[3,1] ^2 ] <= 0
 qc34: [ - dc[4] ^2 + difc[4,0] ^2 + difc[4,1] ^2 ] <= 0
 qc35: [ - dc[5] ^2 + difc[5,0] ^2 + difc[5,1] ^2 ] <= 0
Bounds
 mu[0,0] <= 1
 mu[0,1] <= 1
 mu[0,2] <= 1
 mu[0,3] <= 1
 mu[1,0] <= 1
 mu[1,1] <= 1
 mu[1,2] <= 1
 mu[1,3] <= 1
 mu[1,4] <= 1
 mu[1,5] <= 1
 mu[1,6] <= 1
 mu[2,0] <= 1
 mu[2,1] <= 1
 mu[2,2] <= 1
 mu[2,3] <= 1
 mu[2,4] <= 1
 mu[2,5] <= 1
 mu[2,6] <= 1
 mu[2,7] <= 1
 mu[3,0] <= 1
 mu[3,1] <= 1
 mu[3,2] <= 1
 mu[3,3] <= 1
 mu[4,0] <= 1
 mu[4,1] <= 1
 mu[4,2] <= 1
 mu[4,3] <= 1
 mu[4,4] <= 1
 mu[4,5] <= 1
 mu[4,6] <= 1
 mu[4,7] <= 1
 mu[5,0] <= 1
 mu[5,1] <= 1
 mu[5,2] <= 1
 mu[5,3] <= 1
 mu[5,4] <= 1
 mu[5,5] <= 1
 mu[5,6] <= 1
 sc[0] <= 5
 sc[1] <= 5
 sc[2] <= 5
 sc[3] <= 5
 sc[4] <= 5
 sc[5] <= 5
Binaries
 z[0,1] z[0,2] z[0,3] z[0,4] z[0,5] z[1,0] z[1,2] z[1,3] z[1,4] z[1,5]
 z[2,0] z[2,1] z[2,3] z[2,4] z[2,5] z[3,0] z[3,1] z[3,2] z[3,4] z[3,5]
 z[4,0] z[4,1] z[4,2] z[4,3] z[4,5] z[5,0] z[5,1] z[5,2] z[5,3] z[5,4]
End
